
List of user-set options:

                                    Name   Value                used
                           compl_inf_tol = 1                     yes
                         constr_viol_tol = 1                     yes
                            dual_inf_tol = 1000                  yes
                           linear_solver = ma97                  yes
                              ma86_small = 1e-30                  no
                                  ma86_u = 0.0001                 no
                              ma97_order = best                  yes
                              ma97_small = 1e-30                 yes
                            ma97_switch1 = at_start              yes
                            ma97_switch2 = od_hd_reuse           yes
                                  ma97_u = 1e-06                 yes
                               ma97_umax = 0.5                   yes
                                max_iter = 1000                  yes
                    max_refinement_steps = 20                    yes
                    min_refinement_steps = 5                     yes
                                 mu_init = 1e-06                 yes
           mu_superlinear_decrease_power = 1.25                  yes
                   nlp_scaling_min_value = 1e-08                 yes
                        option_file_name = Preset_Case_657_pf.opt  yes
                             output_file = ./tmp/Preset_Case_657_pf.output  yes
                      print_user_options = yes                   yes
        required_infeasibility_reduction = 1                      no
                                     tol = 1e-08                 yes
                   warm_start_bound_frac = 1e-20                 yes
                   warm_start_bound_push = 1e-20                 yes
                   warm_start_init_point = yes                   yes
              warm_start_mult_bound_push = 1e-20                 yes
                warm_start_mult_init_max = 1e+40                 yes
             warm_start_slack_bound_frac = 1e-20                 yes
             warm_start_slack_bound_push = 1e-20                 yes

******************************************************************************
This program contains Ipopt, a library for large-scale nonlinear optimization.
 Ipopt is released as open source code under the Eclipse Public License (EPL).
         For more information visit http://projects.coin-or.org/Ipopt
******************************************************************************

This is Ipopt version 3.12.10, running with linear solver ma97.

Number of nonzeros in equality constraint Jacobian...:   123443
Number of nonzeros in inequality constraint Jacobian.:      213
Number of nonzeros in Lagrangian Hessian.............:    49069

Total number of variables............................:    31591
                     variables with only lower bounds:    12912
                variables with lower and upper bounds:    15130
                     variables with only upper bounds:        0
Total number of equality constraints.................:    31483
Total number of inequality constraints...............:       25
        inequality constraints with only lower bounds:        4
   inequality constraints with lower and upper bounds:        0
        inequality constraints with only upper bounds:       21

iter    objective    inf_pr   inf_du lg(mu)  ||d||  lg(rg) alpha_du alpha_pr  ls
   0 -5.4260537e+00 4.04e-03 1.02e+00  -6.0 0.00e+00    -  0.00e+00 0.00e+00   0
   1 -5.4256217e+00 3.43e-02 1.02e+00  -6.0 3.81e+05    -  8.48e-05 7.47e-05h  5
   2 -5.4273459e+00 3.43e-02 5.07e+01  -6.0 4.11e+03    -  2.23e-01 1.92e-03h  1
   3 -5.6869976e+00 3.62e+00 1.11e+03  -6.0 4.10e+03    -  1.62e-01 2.90e-01f  1
   4 -5.8133995e+00 5.43e+00 1.22e+03  -6.0 2.69e+03    -  3.26e-01 2.75e-01h  1
   5 -5.9169922e+00 7.63e+00 1.13e+03  -6.0 1.63e+03    -  3.41e-01 3.28e-01h  1
   6 -5.8772541e+00 1.75e-02 8.65e+01  -6.0 6.40e+00  -4.0 2.33e-01 1.00e+00h  1
   7 -5.8817187e+00 1.39e-03 7.20e+01  -6.0 4.94e+00  -4.5 3.32e-01 1.00e+00h  1
   8 -5.8818880e+00 1.39e-03 6.99e+01  -6.0 1.51e+03    -  2.92e-02 5.21e-04h  1
   9 -5.9743600e+00 6.47e+00 2.73e+02  -6.0 1.56e+03    -  4.44e-02 2.82e-01f  1
iter    objective    inf_pr   inf_du lg(mu)  ||d||  lg(rg) alpha_du alpha_pr  ls
  10 -5.9843489e+00 5.34e+00 2.61e+02  -6.0 1.42e+03    -  2.67e-02 1.75e-01h  1
  11 -5.9861555e+00 4.50e+00 7.22e+03  -6.0 6.68e+02    -  2.12e-03 1.57e-01h  1
  12 -5.9755066e+00 4.15e+00 1.19e+03  -6.0 5.18e+02    -  1.89e-01 1.00e+00h  1
  13 -5.9773691e+00 4.04e+00 1.15e+03  -6.0 2.25e+03    -  8.96e-02 2.76e-02h  1
  14 -5.9881314e+00 3.19e+00 9.26e+02  -6.0 1.60e+03    -  2.48e-01 2.09e-01h  1
  15 -6.0010278e+00 2.01e+00 1.05e+04  -6.0 1.61e+03    -  5.61e-01 4.83e-01h  1
  16 -6.0042540e+00 1.70e+00 2.45e+04  -6.0 7.66e+02    -  1.99e-02 2.75e-01h  1
  17 -6.0123756e+00 3.08e+00 5.48e+05  -6.0 8.71e+02    -  1.20e-01 1.00e+00h  1
  18 -6.0089615e+00 1.16e-02 5.81e+02  -6.0 6.55e+00  -5.0 2.77e-01 1.00e+00h  1
  19 -6.0192283e+00 4.65e-01 3.12e+02  -6.0 5.21e+02    -  1.00e+00 5.26e-01h  1
iter    objective    inf_pr   inf_du lg(mu)  ||d||  lg(rg) alpha_du alpha_pr  ls
  20 -6.0193841e+00 3.99e-01 2.68e+02  -6.0 1.90e+02    -  6.23e-01 1.51e-01h  1
  21 -6.0235517e+00 1.32e+00 5.94e+01  -6.0 2.63e+02    -  1.00e+00 7.87e-01h  1
  22 -6.0283739e+00 2.27e-01 1.41e+03  -6.0 1.08e+02    -  6.33e-01 1.00e+00h  1
  23 -6.0314125e+00 1.71e-01 7.27e+03  -6.0 6.32e+01  -5.4 2.48e-02 1.00e+00h  1
  24 -6.0411718e+00 1.33e+00 1.22e+03  -6.0 2.53e+02    -  8.47e-01 8.33e-01h  1
  25 -6.0489964e+00 1.48e+00 5.76e+01  -6.0 2.25e+02    -  1.00e+00 1.00e+00h  1
  26 -6.0519077e+00 1.20e+00 1.05e+04  -6.0 2.15e+02    -  4.42e-01 2.47e-01h  1
  27 -6.0638195e+00 1.29e+00 6.62e+02  -6.0 2.12e+02    -  1.00e+00 1.00e+00h  1
  28 -6.0688756e+00 9.87e-01 2.78e+04  -6.0 2.04e+02    -  4.57e-01 3.39e-01h  1
  29 -6.0847828e+00 1.27e+00 3.08e+03  -6.0 2.12e+02    -  1.00e+00 1.00e+00h  1
iter    objective    inf_pr   inf_du lg(mu)  ||d||  lg(rg) alpha_du alpha_pr  ls
  30 -6.0924850e+00 1.12e+00 4.23e+04  -6.0 2.98e+02    -  2.99e-01 3.28e-01h  1
  31 -6.0932341e+00 1.09e+00 1.91e+06  -6.0 4.94e+02    -  5.36e-01 2.23e-02h  1
  32r-6.0932341e+00 1.09e+00 1.00e+03   0.0 0.00e+00    -  0.00e+00 1.36e-07R  2
  33r-6.1102179e+00 1.09e+00 9.99e+02   0.0 1.05e+04    -  7.97e-06 1.65e-06f  1
  34 -6.1098445e+00 1.07e+00 3.07e+04  -6.0 9.75e+00    -  3.95e-02 2.04e-02h  1
  35 -6.1078391e+00 9.52e-01 3.08e+05  -6.0 9.79e+00    -  2.04e-02 1.10e-01h  1
  36 -6.1046837e+00 7.71e-01 2.49e+05  -6.0 9.08e+00    -  4.52e-01 1.91e-01h  1
  37 -6.1042442e+00 7.46e-01 2.41e+05  -6.0 8.79e+00    -  4.15e-01 3.22e-02h  1
  38 -6.0906252e+00 1.15e-02 4.00e+01  -6.0 9.46e+00    -  6.36e-01 1.00e+00h  1
  39 -6.0911766e+00 4.34e-03 1.73e+01  -6.0 2.49e+00    -  8.80e-01 6.88e-01h  1
iter    objective    inf_pr   inf_du lg(mu)  ||d||  lg(rg) alpha_du alpha_pr  ls
  40 -6.0924918e+00 1.17e-02 2.81e+00  -6.0 5.67e+00  -5.0 8.66e-01 1.00e+00f  1
  41 -6.0950326e+00 1.83e-01 9.11e-01  -6.0 4.77e+01    -  8.92e-01 1.00e+00h  1
  42 -6.1005222e+00 3.98e-01 1.13e+01  -6.0 4.05e+02    -  4.57e-01 2.55e-01h  1
  43 -6.1025085e+00 4.30e-01 1.06e+01  -6.0 4.10e+02    -  1.34e-01 1.22e-01h  1
  44 -6.0990580e+00 5.08e-01 5.61e+04  -6.0 1.26e+02    -  8.10e-04 1.00e+00h  1
  45 -6.0958081e+00 3.83e-03 4.37e+02  -6.0 1.12e+01  -5.5 7.47e-01 1.00e+00h  1
  46 -6.1010969e+00 1.56e-01 6.72e+02  -6.0 1.72e+02    -  5.92e-01 1.00e+00H  1
  47 -6.1019097e+00 1.71e-02 1.36e-01  -6.0 3.03e+01    -  9.74e-01 1.00e+00h  1
  48 -6.1011569e+00 2.24e-02 3.29e-01  -6.0 2.33e+01    -  9.98e-01 1.00e+00h  1
  49 -6.1009398e+00 6.34e-04 2.51e-02  -6.0 3.95e+00    -  1.00e+00 1.00e+00h  1
iter    objective    inf_pr   inf_du lg(mu)  ||d||  lg(rg) alpha_du alpha_pr  ls
  50 -6.1008652e+00 4.15e-04 9.94e-03  -6.0 3.17e+00    -  1.00e+00 1.00e+00h  1
  51 -6.1008594e+00 1.68e-06 5.94e-05  -6.0 2.03e-01    -  1.00e+00 1.00e+00h  1
  52 -6.1008593e+00 9.19e-10 2.46e-08  -6.0 4.73e-03    -  1.00e+00 1.00e+00h  1
  53 -6.1009682e+00 2.79e+00 8.83e+00  -7.5 5.41e+02    -  8.13e-01 7.83e-01h  1
  54 -6.1009613e+00 5.64e-01 8.92e+00  -7.5 1.30e+02    -  1.00e+00 8.74e-01h  1
  55 -6.1009580e+00 4.29e-03 7.55e-03  -7.5 1.58e+01    -  1.00e+00 1.00e+00h  1
  56 -6.1009580e+00 3.47e-08 3.15e-08  -7.5 5.09e-02    -  1.00e+00 1.00e+00h  1
  57 -6.1009595e+00 3.70e-03 7.11e-01  -9.0 1.80e+01    -  9.25e-01 8.47e-01h  1
  58 -6.1009597e+00 1.21e-04 3.81e-01  -9.0 2.75e+00    -  9.07e-01 1.00e+00h  1
  59 -6.1009597e+00 2.84e-10 4.03e-09  -9.0 1.48e-03    -  1.00e+00 1.00e+00h  1

Number of Iterations....: 59

                                   (scaled)                 (unscaled)
Objective...............:  -4.7663747670925831e+00   -6.1009597018785060e+00
Dual infeasibility......:   4.0321554426482008e-09    5.1611589665896970e-09
Constraint violation....:   2.8401695296824403e-10    2.8401695296824403e-10
Complementarity.........:   1.2659863350769923e-09    1.6204625088985501e-09
Overall NLP error.......:   4.0321554426482008e-09    5.1611589665896970e-09


Number of objective function evaluations             = 68
Number of objective gradient evaluations             = 60
Number of equality constraint evaluations            = 68
Number of inequality constraint evaluations          = 68
Number of equality constraint Jacobian evaluations   = 61
Number of inequality constraint Jacobian evaluations = 61
Number of Lagrangian Hessian evaluations             = 59
Total CPU secs in IPOPT (w/o function evaluations)   =    117.467
Total CPU secs in NLP function evaluations           =      2.334

EXIT: Optimal Solution Found.
